WARNING: for repeatability, setting FPU to use double precision
============================[ Problem Statistics ]=============================
|                                                                             |
|  Number of variables:          7493                                         |
|  Number of clauses:           20350                                         |
|  Parse time:                   0.01 s                                       |
|                                                                             |
============================[ Search Statistics ]==============================
| Conflicts |          ORIGINAL         |          LEARNT          | Progress |
|           |    Vars  Clauses Literals |    Limit  Clauses Lit/Cl |          |
===============================================================================
===============================================================================
restarts              : 1
conflicts             : 6              (670 /sec)
decisions             : 44             (0.00 % random) (4912 /sec)
propagations          : 21808          (2434744 /sec)
conflict literals     : 6              (0.00 % deleted)
Memory used           : 7.00 MB
CPU time              : 0.008957 s

UNSATISFIABLE
